8264
19, 41, 8, 9, 10, 33, 43, 32, 49, 1, 22, 31, 21, 42, 7, 2, 30, 29, 47, 26, 28, 27, 13, 14, 52, 11, 51, 12, 25, 46, 48, 24, 5, 6, 4, 15, 38, 37, 40, 39, 36, 35, 34, 44, 16, 50, 20, 23, 18, 17, 3, 45
